
Gurobi 9.5.0 (linux64) logging started Wed Nov  8 12:05:09 2023

Set parameter LogFile to value "/lustre1/scratch/348/vsc34888/JointResearch/05.Models/06.Benchmarking/F.Representative_days_based_on_Line_Benefit_NN_OC_fy_1/3-bus_ByStages_nc60/openStarNet_3-bus_ByStages_nc60.log"
Set parameter Method to value 2
Set parameter MIPFocus to value 1
Set parameter Presolve to value 2
Set parameter RINS to value 100
Set parameter MIPGap to value 0.01
Set parameter Threads to value 36
Set parameter TimeLimit to value 604800
Set parameter IterationLimit to value 760000000
Gurobi Optimizer version 9.5.0 build v9.5.0rc5 (linux64)
Thread count: 36 physical cores, 36 logical processors, using up to 36 threads
Optimize a model with 3963 rows, 1794 columns and 11417 nonzeros
Model fingerprint: 0x5604f7cc
Variable types: 1785 continuous, 9 integer (9 binary)
Coefficient statistics:
  Matrix range     [1e-02, 8e+02]
  Objective range  [1e+00, 1e+00]
  Bounds range     [8e-06, 2e+00]
  RHS range        [8e-06, 1e+00]
Presolve removed 1443 rows and 424 columns
Presolve time: 0.01s
Presolved: 2520 rows, 1370 columns, 8921 nonzeros
Variable types: 1361 continuous, 9 integer (9 binary)
Found heuristic solution: objective 74.6452471
Root relaxation presolved: 2520 rows, 1370 columns, 8921 nonzeros

Root barrier log...

Ordering time: 0.00s

Barrier statistics:
 Dense cols : 9
 AA' NZ     : 2.232e+04
 Factor NZ  : 5.146e+04 (roughly 2 MB of memory)
 Factor Ops : 1.153e+06 (less than 1 second per iteration)
 Threads    : 1

                  Objective                Residual
Iter       Primal          Dual         Primal    Dual     Compl     Time
   0   3.82565431e+05 -4.00575576e+07  1.52e+01 5.53e+01  1.25e+04     0s
   1   2.44931708e+04 -7.95140968e+05  1.00e+00 3.74e-10  4.02e+02     0s
   2   2.07605098e+03 -2.50269947e+05  3.11e-02 3.35e-10  5.50e+01     0s
   3   7.96379380e+02 -6.68304646e+03  6.36e-04 7.83e-11  1.53e+00     0s
   4   1.82973480e+02 -1.62081319e+03  2.15e-05 1.70e-11  3.68e-01     0s
   5   1.03145965e+02 -2.37623139e+02  2.91e-06 2.18e-12  6.95e-02     0s
   6   8.63212802e+01 -1.64044125e+01  1.10e-06 5.79e-13  2.10e-02     0s
   7   7.58175359e+01  4.86496140e+01  3.04e-07 4.55e-13  5.54e-03     0s
   8   6.90270555e+01  6.13932998e+01  6.74e-08 9.09e-13  1.56e-03     0s
   9   6.78627262e+01  6.35663428e+01  4.36e-08 9.09e-13  8.77e-04     0s
  10   6.73132515e+01  6.41573253e+01  2.24e-08 9.09e-13  6.44e-04     0s
  11   6.65913157e+01  6.45455041e+01  8.26e-09 4.55e-13  4.18e-04     0s
  12   6.63429795e+01  6.60439408e+01  1.73e-09 4.55e-13  6.10e-05     0s
  13   6.62097144e+01  6.61870661e+01  1.47e-09 4.55e-13  4.62e-06     0s
  14   6.61953702e+01  6.61949735e+01  6.12e-10 4.55e-13  8.10e-08     0s
  15   6.61951015e+01  6.61951011e+01  1.56e-10 4.55e-13  8.10e-11     0s

Barrier solved model in 15 iterations and 0.07 seconds (0.05 work units)
Optimal objective 6.61951015e+01


Root relaxation: objective 6.619510e+01, 246 iterations, 0.05 seconds (0.03 work units)

    Nodes    |    Current Node    |     Objective Bounds      |     Work
 Expl Unexpl |  Obj  Depth IntInf | Incumbent    BestBd   Gap | It/Node Time

     0     0   66.19510    0    3   74.64525   66.19510  11.3%     -    0s
H    0     0                      66.5140041   66.19510  0.48%     -    0s

Explored 1 nodes (246 simplex iterations) in 0.09 seconds (0.06 work units)
Thread count was 36 (of 36 available processors)

Solution count 2: 66.514 74.6452 

Optimal solution found (tolerance 1.00e-02)
Best objective 6.651400410930e+01, best bound 6.619510121714e+01, gap 0.4795%

Gurobi 9.5.0 (linux64) logging started Wed Nov  8 12:05:09 2023

Set parameter LogFile to value "/lustre1/scratch/348/vsc34888/JointResearch/05.Models/06.Benchmarking/F.Representative_days_based_on_Line_Benefit_NN_OC_fy_1/3-bus_ByStages_nc60/openStarNet_3-bus_ByStages_nc60.log"
Set parameter Method to value 2
Set parameter MIPFocus to value 1
Set parameter Presolve to value 2
Set parameter RINS to value 100
Set parameter MIPGap to value 0.01
Set parameter Threads to value 36
Set parameter TimeLimit to value 604800
Set parameter IterationLimit to value 760000000
No parameters matching 'relax_integrality' found
Gurobi Optimizer version 9.5.0 build v9.5.0rc5 (linux64)
Thread count: 36 physical cores, 36 logical processors, using up to 36 threads
Optimize a model with 3963 rows, 1785 columns and 9248 nonzeros
Model fingerprint: 0xeeb9b8a1
Coefficient statistics:
  Matrix range     [1e-02, 8e+02]
  Objective range  [1e+00, 1e+00]
  Bounds range     [8e-06, 2e+00]
  RHS range        [8e-06, 1e+00]
Presolve removed 3543 rows and 1028 columns
Presolve time: 0.00s
Presolved: 420 rows, 757 columns, 1537 nonzeros

Ordering time: 0.00s

Barrier statistics:
 AA' NZ     : 1.020e+03
 Factor NZ  : 1.680e+03
 Factor Ops : 8.400e+03 (less than 1 second per iteration)
 Threads    : 1

                  Objective                Residual
Iter       Primal          Dual         Primal    Dual     Compl     Time
   0   4.44065471e+05 -3.51749012e+07  3.93e+01 1.69e+02  3.49e+04     0s
   1   1.46881828e+04 -5.81554325e+05  1.77e+00 1.68e-12  7.67e+02     0s
   2   1.28897795e+03 -6.27506963e+04  8.80e-03 3.64e-12  4.37e+01     0s
   3   5.00564427e+02 -1.48172603e+03  1.67e-04 1.11e-12  1.31e+00     0s
   4   1.64039094e+02 -6.02893654e+02  2.08e-06 7.28e-13  5.07e-01     0s
   5   1.09959577e+02 -1.65571500e+02  4.91e-07 7.28e-13  1.82e-01     0s
   6   8.10029147e+01 -1.77385479e+00  1.08e-07 1.18e-12  5.47e-02     0s
   7   7.00456827e+01  3.82715304e+01  2.60e-08 4.55e-13  2.10e-02     0s
   8   6.70400809e+01  6.34851628e+01  1.49e-09 4.55e-13  2.35e-03     0s
   9   6.65458223e+01  6.64360465e+01  6.48e-10 4.55e-13  7.25e-05     0s
  10   6.65142669e+01  6.65102662e+01  4.44e-10 4.55e-13  2.64e-06     0s
  11   6.65140092e+01  6.65134899e+01  2.01e-09 4.55e-13  3.43e-07     0s
  12   6.65140043e+01  6.65140034e+01  9.52e-10 4.55e-13  6.12e-10     0s
  13   6.65140041e+01  6.65140041e+01  1.70e-10 4.55e-13  6.15e-16     0s

Barrier solved model in 13 iterations and 0.01 seconds (0.01 work units)
Optimal objective 6.65140041e+01

Crossover log...

       5 DPushes remaining with DInf 0.0000000e+00                 0s
       0 DPushes remaining with DInf 0.0000000e+00                 0s

      60 PPushes remaining with PInf 0.0000000e+00                 0s
       0 PPushes remaining with PInf 0.0000000e+00                 0s

  Push phase complete: Pinf 0.0000000e+00, Dinf 7.4273920e-14      0s

Iteration    Objective       Primal Inf.    Dual Inf.      Time
      68    6.6514004e+01   0.000000e+00   0.000000e+00      0s

Solved in 68 iterations and 0.01 seconds (0.01 work units)
Optimal objective  6.651400411e+01
